p edge 40 152
e 1 8
e 1 9
e 1 15
e 1 20
e 1 24
e 1 25
e 1 29
e 1 30
e 1 38
e 2 4
e 2 6
e 2 11
e 2 19
e 2 24
e 2 27
e 2 40
e 3 4
e 3 8
e 3 12
e 3 16
e 3 25
e 3 30
e 3 32
e 3 34
e 4 5
e 4 8
e 4 22
e 4 25
e 4 30
e 4 32
e 4 33
e 4 35
e 4 36
e 4 40
e 5 7
e 5 8
e 5 9
e 5 12
e 5 16
e 5 19
e 5 23
e 5 25
e 5 33
e 6 11
e 6 12
e 6 20
e 6 24
e 6 28
e 6 33
e 6 39
e 7 9
e 7 11
e 7 12
e 7 15
e 7 17
e 7 18
e 7 25
e 7 30
e 7 32
e 7 33
e 8 13
e 8 17
e 8 18
e 8 20
e 8 23
e 8 26
e 8 31
e 8 38
e 9 20
e 9 30
e 9 35
e 9 40
e 10 11
e 10 17
e 10 26
e 10 28
e 11 18
e 11 22
e 11 28
e 12 15
e 12 17
e 12 18
e 12 20
e 12 24
e 12 25
e 12 38
e 13 16
e 13 21
e 13 34
e 14 16
e 14 17
e 14 19
e 14 21
e 14 32
e 14 39
e 15 16
e 15 17
e 15 25
e 15 37
e 16 24
e 17 18
e 17 27
e 17 29
e 17 37
e 17 40
e 18 29
e 18 35
e 18 38
e 19 23
e 19 25
e 19 30
e 19 31
e 19 38
e 20 33
e 21 22
e 21 26
e 21 33
e 21 36
e 21 37
e 21 38
e 22 26
e 22 28
e 22 31
e 22 36
e 22 40
e 23 27
e 24 25
e 24 35
e 24 36
e 24 40
e 25 28
e 25 32
e 25 36
e 25 38
e 27 28
e 27 31
e 28 36
e 28 37
e 29 30
e 29 32
e 29 34
e 29 37
e 29 38
e 30 31
e 30 36
e 31 33
e 32 33
e 32 35
e 34 37
e 35 36
e 36 37
e 36 38